opal/logic/z3/ontologies/PSL_refactored/axioms/psl_subactivity.in

formulas(assumption).

end_of_list.
